p tw 30 45
e 0 14
e 0 28
e 0 29
e 1 10
e 1 16
e 1 28
e 2 20
e 2 24
e 3 9
e 3 21
e 3 22
e 3 24
e 3 25
e 4 29
e 5 17
e 5 20
e 6 16
e 6 18
e 6 19
e 7 22
e 7 25
e 8 12
e 8 23
e 9 12
e 9 14
e 9 24
e 11 17
e 11 18
e 11 21
e 11 27
e 12 28
e 13 26
e 14 15
e 14 26
e 14 28
e 16 19
e 16 20
e 16 21
e 16 22
e 16 27
e 17 21
e 17 25
e 18 19
e 18 24
e 21 27
